\ Model Fischetti
\ LP format - for model browsing. Use MPS format to capture full model detail.
Minimize
  0.1 C5 - 0.55 C6 - 0.1 C7 - 0.4 C8 + 0 C9 + 0 C10 + 0 C11 + 0 C12 + 0 C15
   + 0 C16 + 0 C17 + 0 C18 + 0 C19 + 0 C20 + 0 C21 + 0 C22 + 0 C23 + 0 C24
   + 0 C25 + 0 C26 + 0 C27 + 0 C28 + 0 C29 + 0.6 Constant
Subject To
 R0: C0 <= 10.6
 R1: C0 >= -9.4
 R2: C1 <= 9.7
 R3: C1 >= -10.3
 R4: C2 <= 10.4
 R5: C2 >= -9.6
 R6: - 0.3 C0 + 0.15 C1 - 0.3 C2 + C3 >= -0.2
 R7: - 0.15 C0 + 0.075 C1 - 0.15 C2 + C3 <= 7499.9
 R8: 0.2 C0 + 0.5 C1 - 0.5 C2 + C4 >= 0.1
 R9: 0.1 C0 + 0.25 C1 - 0.25 C2 + C4 <= 7500.05
 R10: - 0.3 C3 - 0.3 C4 + C5 >= 0.3
 R11: - 0.15 C3 - 0.15 C4 + C5 <= 7500.15
 R12: 0.2 C3 + 0.2 C4 + C6 >= -0.2
 R13: 0.1 C3 + 0.1 C4 + C6 <= 7499.9
 R14: 0.15 C3 + 0.15 C4 + C7 >= 0.3
 R15: 0.075 C3 + 0.075 C4 + C7 <= 7500.15
 R16: - 0.6 C3 - 0.6 C4 + C8 >= -0.1
 R17: - 0.3 C3 - 0.3 C4 + C8 <= 7499.95
 R18: - 0.509 C5 - 0.047 C6 + 0.315 C7 + 0.191 C8 - 15000 C13
   >= -14999.294
 R19: 0.091 C5 + 0.703 C6 + 0.315 C7 - 0.109 C8 - 15000 C14 >= -14999.894
 R20: C13 + C14 >= 1
Bounds
 C0 >= -15000
 C1 >= -15000
 C2 >= -15000
 C12 <= 1
 C13 <= 1
 C14 <= 1
 C24 <= 1
 C25 <= 1
 C26 <= 1
 C27 <= 1
 C28 <= 1
 C29 <= 1
 Constant = 1
End
